# Objective value = 0
S 0
C1,2 0
C1,6 0
C1,26 0
C2,3 0
C2,7 0
C2,27 0
C3,4 0
C3,8 0
C3,28 0
C4,5 0
C4,9 0
C4,29 0
C5,10 0
C5,30 0
C6,7 0
C6,11 0
C6,31 0
C7,8 0
C7,12 0
C7,32 0
C8,9 0
C8,13 0
C8,33 0
C9,10 0
C9,14 0
C9,34 0
C10,15 0
C10,35 0
C11,12 0
C11,16 0
C11,36 0
C12,13 0
C12,17 0
C12,37 0
C13,14 0
C13,18 0
C13,38 0
C14,15 0
C14,19 0
C14,39 0
C15,20 0
C15,40 0
C16,17 0
C16,21 0
C16,41 0
C17,18 0
C17,22 0
C17,42 0
C18,19 0
C18,23 0
C18,43 0
C19,20 0
C19,24 0
C19,44 0
C20,25 0
C20,45 0
C21,22 0
C21,46 0
C22,23 0
C22,47 0
C23,24 0
C23,48 0
C24,25 0
C24,49 0
C25,50 0
C26,27 0
C26,31 0
C26,51 0
C27,28 0
C27,32 0
C27,52 0
C28,29 0
C28,33 0
C28,53 0
C29,30 0
C29,34 0
C29,54 0
C30,35 0
C30,55 0
C31,32 0
C31,36 0
C31,56 0
C32,33 0
C32,37 0
C32,57 0
C33,34 0
C33,38 0
C33,58 0
C34,35 0
C34,39 0
C34,59 0
C35,40 0
C35,60 0
C36,37 0
C36,41 0
C36,61 0
C37,38 0
C37,42 0
C37,62 0
C38,39 0
C38,43 0
C38,63 0
C39,40 0
C39,44 0
C39,64 0
C40,45 0
C40,65 0
C41,42 0
C41,46 0
C41,66 0
C42,43 0
C42,47 0
C42,67 0
C43,44 0
C43,48 0
C43,68 0
C44,45 0
C44,49 0
C44,69 0
C45,50 0
C45,70 0
C46,47 0
C46,71 0
C47,48 0
C47,72 0
C48,49 0
C48,73 0
C49,50 0
C49,74 0
C50,75 0
C51,52 0
C51,56 0
C51,76 0
C52,53 0
C52,57 0
C52,77 0
C53,54 0
C53,58 0
C53,78 0
C54,55 0
C54,59 0
C54,79 0
C55,60 0
C55,80 0
C56,57 0
C56,61 0
C56,81 0
C57,58 0
C57,62 0
C57,82 0
C58,59 0
C58,63 0
C58,83 0
C59,60 0
C59,64 0
C59,84 0
C60,65 0
C60,85 0
C61,62 0
C61,66 0
C61,86 0
C62,63 0
C62,67 0
C62,87 0
C63,64 0
C63,68 0
C63,88 0
C64,65 0
C64,69 0
C64,89 0
C65,70 0
C65,90 0
C66,67 0
C66,71 0
C66,91 0
C67,68 0
C67,72 0
C67,92 0
C68,69 0
C68,73 0
C68,93 0
C69,70 0
C69,74 0
C69,94 0
C70,75 0
C70,95 0
C71,72 0
C71,96 0
C72,73 0
C72,97 0
C73,74 0
C73,98 0
C74,75 0
C74,99 0
C75,100 0
C76,77 0
C76,81 0
C76,101 0
C77,78 0
C77,82 0
C77,102 0
C78,79 0
C78,83 0
C78,103 0
C79,80 0
C79,84 0
C79,104 0
C80,85 0
C80,105 0
C81,82 0
C81,86 0
C81,106 0
C82,83 0
C82,87 0
C82,107 0
C83,84 0
C83,88 0
C83,108 0
C84,85 0
C84,89 0
C84,109 0
C85,90 0
C85,110 0
C86,87 0
C86,91 0
C86,111 0
C87,88 0
C87,92 0
C87,112 0
C88,89 0
C88,93 0
C88,113 0
C89,90 0
C89,94 0
C89,114 0
C90,95 0
C90,115 0
C91,92 0
C91,96 0
C91,116 0
C92,93 0
C92,97 0
C92,117 0
C93,94 0
C93,98 0
C93,118 0
C94,95 0
C94,99 0
C94,119 0
C95,100 0
C95,120 0
C96,97 0
C96,121 0
C97,98 0
C97,122 0
C98,99 0
C98,123 0
C99,100 0
C99,124 0
C100,125 0
C101,102 0
C101,106 0
C102,103 0
C102,107 0
C103,104 0
C103,108 0
C104,105 0
C104,109 0
C105,110 0
C106,107 0
C106,111 0
C107,108 0
C107,112 0
C108,109 0
C108,113 0
C109,110 0
C109,114 0
C110,115 0
C111,112 0
C111,116 0
C112,113 0
C112,117 0
C113,114 0
C113,118 0
C114,115 0
C114,119 0
C115,120 0
C116,117 0
C116,121 0
C117,118 0
C117,122 0
C118,119 0
C118,123 0
C119,120 0
C119,124 0
C120,125 0
C121,122 0
C122,123 0
C123,124 0
C124,125 0
Offset 0
X1,1 0
X1,2 0
X1,3 0
X1,4 0
X1,5 0
X1,6 0
X1,7 0
X1,8 0
X1,9 0
X1,10 0
X1,11 0
X1,12 0
X1,13 0
X1,14 0
X1,15 0
X1,16 0
X1,17 0
X1,18 0
X1,19 0
X1,20 0
X1,21 0
X1,22 0
X1,23 0
X1,24 0
X1,25 0
X1,26 0
X1,27 0
X1,28 0
X1,29 0
X1,30 0
X1,31 0
X1,32 0
X1,33 0
X1,34 0
X1,35 0
X1,36 0
X1,37 0
X1,38 0
X1,39 0
X1,40 0
X1,41 0
X1,42 0
X1,43 0
X1,44 0
X1,45 0
X1,46 0
X1,47 0
X1,48 0
X1,49 0
X1,50 0
X1,51 0
X1,52 0
X1,53 0
X1,54 0
X1,55 0
X1,56 0
X1,57 1
X1,58 0
X1,59 0
X1,60 0
X1,61 0
X1,62 0
X1,63 0
X1,64 0
X1,65 0
X1,66 0
X1,67 0
X1,68 0
X1,69 0
X1,70 0
X1,71 0
X1,72 0
X1,73 0
X1,74 0
X1,75 0
X1,76 0
X1,77 0
X1,78 0
X1,79 0
X1,80 0
X1,81 0
X1,82 0
X1,83 0
X1,84 0
X1,85 0
X1,86 0
X1,87 0
X1,88 0
X1,89 0
X1,90 0
X1,91 0
X1,92 0
X1,93 0
X1,94 0
X1,95 0
X1,96 0
X1,97 0
X1,98 0
X1,99 0
X1,100 0
X1,101 0
X1,102 0
X1,103 0
X1,104 0
X1,105 0
X1,106 0
X1,107 0
X1,108 0
X1,109 0
X1,110 0
X1,111 0
X1,112 0
X1,113 0
X1,114 0
X1,115 0
X1,116 0
X1,117 0
X1,118 0
X1,119 0
X1,120 0
X1,121 0
X1,122 0
X1,123 0
X1,124 0
X1,125 0
X2,1 0
X2,2 0
X2,3 0
X2,4 0
X2,5 0
X2,6 0
X2,7 0
X2,8 0
X2,9 0
X2,10 0
X2,11 0
X2,12 0
X2,13 0
X2,14 0
X2,15 0
X2,16 0
X2,17 0
X2,18 0
X2,19 0
X2,20 0
X2,21 0
X2,22 0
X2,23 0
X2,24 0
X2,25 0
X2,26 0
X2,27 0
X2,28 0
X2,29 0
X2,30 0
X2,31 0
X2,32 1
X2,33 0
X2,34 0
X2,35 0
X2,36 0
X2,37 0
X2,38 0
X2,39 0
X2,40 0
X2,41 0
X2,42 0
X2,43 0
X2,44 0
X2,45 0
X2,46 0
X2,47 0
X2,48 0
X2,49 0
X2,50 0
X2,51 0
X2,52 0
X2,53 0
X2,54 0
X2,55 0
X2,56 0
X2,57 0
X2,58 0
X2,59 0
X2,60 0
X2,61 0
X2,62 0
X2,63 0
X2,64 0
X2,65 0
X2,66 0
X2,67 0
X2,68 0
X2,69 0
X2,70 0
X2,71 0
X2,72 0
X2,73 0
X2,74 0
X2,75 0
X2,76 0
X2,77 0
X2,78 0
X2,79 0
X2,80 0
X2,81 0
X2,82 0
X2,83 0
X2,84 0
X2,85 0
X2,86 0
X2,87 0
X2,88 0
X2,89 0
X2,90 0
X2,91 0
X2,92 0
X2,93 0
X2,94 0
X2,95 0
X2,96 0
X2,97 0
X2,98 0
X2,99 0
X2,100 0
X2,101 0
X2,102 0
X2,103 0
X2,104 0
X2,105 0
X2,106 0
X2,107 0
X2,108 0
X2,109 0
X2,110 0
X2,111 0
X2,112 0
X2,113 0
X2,114 0
X2,115 0
X2,116 0
X2,117 0
X2,118 0
X2,119 0
X2,120 0
X2,121 0
X2,122 0
X2,123 0
X2,124 0
X2,125 0
X3,1 0
X3,2 0
X3,3 0
X3,4 0
X3,5 0
X3,6 0
X3,7 1
X3,8 0
X3,9 0
X3,10 0
X3,11 0
X3,12 0
X3,13 0
X3,14 0
X3,15 0
X3,16 0
X3,17 0
X3,18 0
X3,19 0
X3,20 0
X3,21 0
X3,22 0
X3,23 0
X3,24 0
X3,25 0
X3,26 0
X3,27 0
X3,28 0
X3,29 0
X3,30 0
X3,31 0
X3,32 0
X3,33 0
X3,34 0
X3,35 0
X3,36 0
X3,37 0
X3,38 0
X3,39 0
X3,40 0
X3,41 0
X3,42 0
X3,43 0
X3,44 0
X3,45 0
X3,46 0
X3,47 0
X3,48 0
X3,49 0
X3,50 0
X3,51 0
X3,52 0
X3,53 0
X3,54 0
X3,55 0
X3,56 0
X3,57 0
X3,58 0
X3,59 0
X3,60 0
X3,61 0
X3,62 0
X3,63 0
X3,64 0
X3,65 0
X3,66 0
X3,67 0
X3,68 0
X3,69 0
X3,70 0
X3,71 0
X3,72 0
X3,73 0
X3,74 0
X3,75 0
X3,76 0
X3,77 0
X3,78 0
X3,79 0
X3,80 0
X3,81 0
X3,82 0
X3,83 0
X3,84 0
X3,85 0
X3,86 0
X3,87 0
X3,88 0
X3,89 0
X3,90 0
X3,91 0
X3,92 0
X3,93 0
X3,94 0
X3,95 0
X3,96 0
X3,97 0
X3,98 0
X3,99 0
X3,100 0
X3,101 0
X3,102 0
X3,103 0
X3,104 0
X3,105 0
X3,106 0
X3,107 0
X3,108 0
X3,109 0
X3,110 0
X3,111 0
X3,112 0
X3,113 0
X3,114 0
X3,115 0
X3,116 0
X3,117 0
X3,118 0
X3,119 0
X3,120 0
X3,121 0
X3,122 0
X3,123 0
X3,124 0
X3,125 0
X4,1 0
X4,2 0
X4,3 0
X4,4 0
X4,5 0
X4,6 0
X4,7 0
X4,8 1
X4,9 0
X4,10 0
X4,11 0
X4,12 0
X4,13 0
X4,14 0
X4,15 0
X4,16 0
X4,17 0
X4,18 0
X4,19 0
X4,20 0
X4,21 0
X4,22 0
X4,23 0
X4,24 0
X4,25 0
X4,26 0
X4,27 0
X4,28 0
X4,29 0
X4,30 0
X4,31 0
X4,32 0
X4,33 0
X4,34 0
X4,35 0
X4,36 0
X4,37 0
X4,38 0
X4,39 0
X4,40 0
X4,41 0
X4,42 0
X4,43 0
X4,44 0
X4,45 0
X4,46 0
X4,47 0
X4,48 0
X4,49 0
X4,50 0
X4,51 0
X4,52 0
X4,53 0
X4,54 0
X4,55 0
X4,56 0
X4,57 0
X4,58 0
X4,59 0
X4,60 0
X4,61 0
X4,62 0
X4,63 0
X4,64 0
X4,65 0
X4,66 0
X4,67 0
X4,68 0
X4,69 0
X4,70 0
X4,71 0
X4,72 0
X4,73 0
X4,74 0
X4,75 0
X4,76 0
X4,77 0
X4,78 0
X4,79 0
X4,80 0
X4,81 0
X4,82 0
X4,83 0
X4,84 0
X4,85 0
X4,86 0
X4,87 0
X4,88 0
X4,89 0
X4,90 0
X4,91 0
X4,92 0
X4,93 0
X4,94 0
X4,95 0
X4,96 0
X4,97 0
X4,98 0
X4,99 0
X4,100 0
X4,101 0
X4,102 0
X4,103 0
X4,104 0
X4,105 0
X4,106 0
X4,107 0
X4,108 0
X4,109 0
X4,110 0
X4,111 0
X4,112 0
X4,113 0
X4,114 0
X4,115 0
X4,116 0
X4,117 0
X4,118 0
X4,119 0
X4,120 0
X4,121 0
X4,122 0
X4,123 0
X4,124 0
X4,125 0
X5,1 0
X5,2 0
X5,3 0
X5,4 0
X5,5 0
X5,6 0
X5,7 0
X5,8 0
X5,9 1
X5,10 0
X5,11 0
X5,12 0
X5,13 0
X5,14 0
X5,15 0
X5,16 0
X5,17 0
X5,18 0
X5,19 0
X5,20 0
X5,21 0
X5,22 0
X5,23 0
X5,24 0
X5,25 0
X5,26 0
X5,27 0
X5,28 0
X5,29 0
X5,30 0
X5,31 0
X5,32 0
X5,33 0
X5,34 0
X5,35 0
X5,36 0
X5,37 0
X5,38 0
X5,39 0
X5,40 0
X5,41 0
X5,42 0
X5,43 0
X5,44 0
X5,45 0
X5,46 0
X5,47 0
X5,48 0
X5,49 0
X5,50 0
X5,51 0
X5,52 0
X5,53 0
X5,54 0
X5,55 0
X5,56 0
X5,57 0
X5,58 0
X5,59 0
X5,60 0
X5,61 0
X5,62 0
X5,63 0
X5,64 0
X5,65 0
X5,66 0
X5,67 0
X5,68 0
X5,69 0
X5,70 0
X5,71 0
X5,72 0
X5,73 0
X5,74 0
X5,75 0
X5,76 0
X5,77 0
X5,78 0
X5,79 0
X5,80 0
X5,81 0
X5,82 0
X5,83 0
X5,84 0
X5,85 0
X5,86 0
X5,87 0
X5,88 0
X5,89 0
X5,90 0
X5,91 0
X5,92 0
X5,93 0
X5,94 0
X5,95 0
X5,96 0
X5,97 0
X5,98 0
X5,99 0
X5,100 0
X5,101 0
X5,102 0
X5,103 0
X5,104 0
X5,105 0
X5,106 0
X5,107 0
X5,108 0
X5,109 0
X5,110 0
X5,111 0
X5,112 0
X5,113 0
X5,114 0
X5,115 0
X5,116 0
X5,117 0
X5,118 0
X5,119 0
X5,120 0
X5,121 0
X5,122 0
X5,123 0
X5,124 0
X5,125 0
X6,1 0
X6,2 0
X6,3 0
X6,4 0
X6,5 0
X6,6 0
X6,7 0
X6,8 0
X6,9 0
X6,10 0
X6,11 0
X6,12 0
X6,13 0
X6,14 0
X6,15 0
X6,16 0
X6,17 0
X6,18 0
X6,19 0
X6,20 0
X6,21 0
X6,22 0
X6,23 0
X6,24 0
X6,25 0
X6,26 0
X6,27 0
X6,28 0
X6,29 0
X6,30 0
X6,31 0
X6,32 0
X6,33 0
X6,34 1
X6,35 0
X6,36 0
X6,37 0
X6,38 0
X6,39 0
X6,40 0
X6,41 0
X6,42 0
X6,43 0
X6,44 0
X6,45 0
X6,46 0
X6,47 0
X6,48 0
X6,49 0
X6,50 0
X6,51 0
X6,52 0
X6,53 0
X6,54 0
X6,55 0
X6,56 0
X6,57 0
X6,58 0
X6,59 0
X6,60 0
X6,61 0
X6,62 0
X6,63 0
X6,64 0
X6,65 0
X6,66 0
X6,67 0
X6,68 0
X6,69 0
X6,70 0
X6,71 0
X6,72 0
X6,73 0
X6,74 0
X6,75 0
X6,76 0
X6,77 0
X6,78 0
X6,79 0
X6,80 0
X6,81 0
X6,82 0
X6,83 0
X6,84 0
X6,85 0
X6,86 0
X6,87 0
X6,88 0
X6,89 0
X6,90 0
X6,91 0
X6,92 0
X6,93 0
X6,94 0
X6,95 0
X6,96 0
X6,97 0
X6,98 0
X6,99 0
X6,100 0
X6,101 0
X6,102 0
X6,103 0
X6,104 0
X6,105 0
X6,106 0
X6,107 0
X6,108 0
X6,109 0
X6,110 0
X6,111 0
X6,112 0
X6,113 0
X6,114 0
X6,115 0
X6,116 0
X6,117 0
X6,118 0
X6,119 0
X6,120 0
X6,121 0
X6,122 0
X6,123 0
X6,124 0
X6,125 0
X7,1 0
X7,2 0
X7,3 0
X7,4 0
X7,5 0
X7,6 0
X7,7 0
X7,8 0
X7,9 0
X7,10 0
X7,11 0
X7,12 0
X7,13 0
X7,14 0
X7,15 0
X7,16 0
X7,17 0
X7,18 0
X7,19 0
X7,20 0
X7,21 0
X7,22 0
X7,23 0
X7,24 0
X7,25 0
X7,26 0
X7,27 0
X7,28 0
X7,29 0
X7,30 0
X7,31 0
X7,32 0
X7,33 0
X7,34 0
X7,35 1
X7,36 0
X7,37 0
X7,38 0
X7,39 0
X7,40 0
X7,41 0
X7,42 0
X7,43 0
X7,44 0
X7,45 0
X7,46 0
X7,47 0
X7,48 0
X7,49 0
X7,50 0
X7,51 0
X7,52 0
X7,53 0
X7,54 0
X7,55 0
X7,56 0
X7,57 0
X7,58 0
X7,59 0
X7,60 0
X7,61 0
X7,62 0
X7,63 0
X7,64 0
X7,65 0
X7,66 0
X7,67 0
X7,68 0
X7,69 0
X7,70 0
X7,71 0
X7,72 0
X7,73 0
X7,74 0
X7,75 0
X7,76 0
X7,77 0
X7,78 0
X7,79 0
X7,80 0
X7,81 0
X7,82 0
X7,83 0
X7,84 0
X7,85 0
X7,86 0
X7,87 0
X7,88 0
X7,89 0
X7,90 0
X7,91 0
X7,92 0
X7,93 0
X7,94 0
X7,95 0
X7,96 0
X7,97 0
X7,98 0
X7,99 0
X7,100 0
X7,101 0
X7,102 0
X7,103 0
X7,104 0
X7,105 0
X7,106 0
X7,107 0
X7,108 0
X7,109 0
X7,110 0
X7,111 0
X7,112 0
X7,113 0
X7,114 0
X7,115 0
X7,116 0
X7,117 0
X7,118 0
X7,119 0
X7,120 0
X7,121 0
X7,122 0
X7,123 0
X7,124 0
X7,125 0
X8,1 0
X8,2 0
X8,3 0
X8,4 0
X8,5 0
X8,6 0
X8,7 0
X8,8 0
X8,9 0
X8,10 0
X8,11 0
X8,12 0
X8,13 0
X8,14 0
X8,15 0
X8,16 0
X8,17 0
X8,18 0
X8,19 0
X8,20 0
X8,21 0
X8,22 0
X8,23 0
X8,24 0
X8,25 0
X8,26 0
X8,27 0
X8,28 0
X8,29 0
X8,30 0
X8,31 0
X8,32 0
X8,33 0
X8,34 0
X8,35 0
X8,36 0
X8,37 0
X8,38 0
X8,39 0
X8,40 1
X8,41 0
X8,42 0
X8,43 0
X8,44 0
X8,45 0
X8,46 0
X8,47 0
X8,48 0
X8,49 0
X8,50 0
X8,51 0
X8,52 0
X8,53 0
X8,54 0
X8,55 0
X8,56 0
X8,57 0
X8,58 0
X8,59 0
X8,60 0
X8,61 0
X8,62 0
X8,63 0
X8,64 0
X8,65 0
X8,66 0
X8,67 0
X8,68 0
X8,69 0
X8,70 0
X8,71 0
X8,72 0
X8,73 0
X8,74 0
X8,75 0
X8,76 0
X8,77 0
X8,78 0
X8,79 0
X8,80 0
X8,81 0
X8,82 0
X8,83 0
X8,84 0
X8,85 0
X8,86 0
X8,87 0
X8,88 0
X8,89 0
X8,90 0
X8,91 0
X8,92 0
X8,93 0
X8,94 0
X8,95 0
X8,96 0
X8,97 0
X8,98 0
X8,99 0
X8,100 0
X8,101 0
X8,102 0
X8,103 0
X8,104 0
X8,105 0
X8,106 0
X8,107 0
X8,108 0
X8,109 0
X8,110 0
X8,111 0
X8,112 0
X8,113 0
X8,114 0
X8,115 0
X8,116 0
X8,117 0
X8,118 0
X8,119 0
X8,120 0
X8,121 0
X8,122 0
X8,123 0
X8,124 0
X8,125 0
X9,1 0
X9,2 0
X9,3 0
X9,4 0
X9,5 0
X9,6 0
X9,7 0
X9,8 0
X9,9 0
X9,10 0
X9,11 0
X9,12 0
X9,13 0
X9,14 0
X9,15 0
X9,16 0
X9,17 0
X9,18 0
X9,19 0
X9,20 0
X9,21 0
X9,22 0
X9,23 0
X9,24 0
X9,25 0
X9,26 0
X9,27 0
X9,28 0
X9,29 0
X9,30 0
X9,31 0
X9,32 0
X9,33 0
X9,34 0
X9,35 0
X9,36 0
X9,37 0
X9,38 0
X9,39 0
X9,40 0
X9,41 0
X9,42 0
X9,43 0
X9,44 0
X9,45 1
X9,46 0
X9,47 0
X9,48 0
X9,49 0
X9,50 0
X9,51 0
X9,52 0
X9,53 0
X9,54 0
X9,55 0
X9,56 0
X9,57 0
X9,58 0
X9,59 0
X9,60 0
X9,61 0
X9,62 0
X9,63 0
X9,64 0
X9,65 0
X9,66 0
X9,67 0
X9,68 0
X9,69 0
X9,70 0
X9,71 0
X9,72 0
X9,73 0
X9,74 0
X9,75 0
X9,76 0
X9,77 0
X9,78 0
X9,79 0
X9,80 0
X9,81 0
X9,82 0
X9,83 0
X9,84 0
X9,85 0
X9,86 0
X9,87 0
X9,88 0
X9,89 0
X9,90 0
X9,91 0
X9,92 0
X9,93 0
X9,94 0
X9,95 0
X9,96 0
X9,97 0
X9,98 0
X9,99 0
X9,100 0
X9,101 0
X9,102 0
X9,103 0
X9,104 0
X9,105 0
X9,106 0
X9,107 0
X9,108 0
X9,109 0
X9,110 0
X9,111 0
X9,112 0
X9,113 0
X9,114 0
X9,115 0
X9,116 0
X9,117 0
X9,118 0
X9,119 0
X9,120 0
X9,121 0
X9,122 0
X9,123 0
X9,124 0
X9,125 0
X10,1 0
X10,2 0
X10,3 0
X10,4 0
X10,5 0
X10,6 0
X10,7 0
X10,8 0
X10,9 0
X10,10 0
X10,11 0
X10,12 0
X10,13 0
X10,14 0
X10,15 0
X10,16 0
X10,17 0
X10,18 0
X10,19 0
X10,20 0
X10,21 0
X10,22 0
X10,23 0
X10,24 0
X10,25 0
X10,26 0
X10,27 0
X10,28 0
X10,29 0
X10,30 0
X10,31 0
X10,32 0
X10,33 0
X10,34 0
X10,35 0
X10,36 0
X10,37 0
X10,38 0
X10,39 0
X10,40 0
X10,41 0
X10,42 0
X10,43 0
X10,44 1
X10,45 0
X10,46 0
X10,47 0
X10,48 0
X10,49 0
X10,50 0
X10,51 0
X10,52 0
X10,53 0
X10,54 0
X10,55 0
X10,56 0
X10,57 0
X10,58 0
X10,59 0
X10,60 0
X10,61 0
X10,62 0
X10,63 0
X10,64 0
X10,65 0
X10,66 0
X10,67 0
X10,68 0
X10,69 0
X10,70 0
X10,71 0
X10,72 0
X10,73 0
X10,74 0
X10,75 0
X10,76 0
X10,77 0
X10,78 0
X10,79 0
X10,80 0
X10,81 0
X10,82 0
X10,83 0
X10,84 0
X10,85 0
X10,86 0
X10,87 0
X10,88 0
X10,89 0
X10,90 0
X10,91 0
X10,92 0
X10,93 0
X10,94 0
X10,95 0
X10,96 0
X10,97 0
X10,98 0
X10,99 0
X10,100 0
X10,101 0
X10,102 0
X10,103 0
X10,104 0
X10,105 0
X10,106 0
X10,107 0
X10,108 0
X10,109 0
X10,110 0
X10,111 0
X10,112 0
X10,113 0
X10,114 0
X10,115 0
X10,116 0
X10,117 0
X10,118 0
X10,119 0
X10,120 0
X10,121 0
X10,122 0
X10,123 0
X10,124 0
X10,125 0
X11,1 0
X11,2 0
X11,3 0
X11,4 0
X11,5 0
X11,6 0
X11,7 0
X11,8 0
X11,9 0
X11,10 0
X11,11 0
X11,12 0
X11,13 0
X11,14 0
X11,15 0
X11,16 0
X11,17 0
X11,18 0
X11,19 0
X11,20 0
X11,21 0
X11,22 0
X11,23 0
X11,24 0
X11,25 0
X11,26 0
X11,27 0
X11,28 0
X11,29 0
X11,30 0
X11,31 0
X11,32 0
X11,33 0
X11,34 0
X11,35 0
X11,36 0
X11,37 0
X11,38 0
X11,39 0
X11,40 0
X11,41 0
X11,42 0
X11,43 0
X11,44 0
X11,45 0
X11,46 0
X11,47 0
X11,48 0
X11,49 1
X11,50 0
X11,51 0
X11,52 0
X11,53 0
X11,54 0
X11,55 0
X11,56 0
X11,57 0
X11,58 0
X11,59 0
X11,60 0
X11,61 0
X11,62 0
X11,63 0
X11,64 0
X11,65 0
X11,66 0
X11,67 0
X11,68 0
X11,69 0
X11,70 0
X11,71 0
X11,72 0
X11,73 0
X11,74 0
X11,75 0
X11,76 0
X11,77 0
X11,78 0
X11,79 0
X11,80 0
X11,81 0
X11,82 0
X11,83 0
X11,84 0
X11,85 0
X11,86 0
X11,87 0
X11,88 0
X11,89 0
X11,90 0
X11,91 0
X11,92 0
X11,93 0
X11,94 0
X11,95 0
X11,96 0
X11,97 0
X11,98 0
X11,99 0
X11,100 0
X11,101 0
X11,102 0
X11,103 0
X11,104 0
X11,105 0
X11,106 0
X11,107 0
X11,108 0
X11,109 0
X11,110 0
X11,111 0
X11,112 0
X11,113 0
X11,114 0
X11,115 0
X11,116 0
X11,117 0
X11,118 0
X11,119 0
X11,120 0
X11,121 0
X11,122 0
X11,123 0
X11,124 0
X11,125 0
X12,1 0
X12,2 0
X12,3 0
X12,4 0
X12,5 0
X12,6 0
X12,7 0
X12,8 0
X12,9 0
X12,10 0
X12,11 0
X12,12 0
X12,13 0
X12,14 0
X12,15 0
X12,16 0
X12,17 0
X12,18 0
X12,19 0
X12,20 0
X12,21 0
X12,22 0
X12,23 0
X12,24 0
X12,25 0
X12,26 0
X12,27 0
X12,28 0
X12,29 0
X12,30 0
X12,31 0
X12,32 0
X12,33 0
X12,34 0
X12,35 0
X12,36 0
X12,37 0
X12,38 0
X12,39 0
X12,40 0
X12,41 0
X12,42 0
X12,43 0
X12,44 0
X12,45 0
X12,46 0
X12,47 0
X12,48 1
X12,49 0
X12,50 0
X12,51 0
X12,52 0
X12,53 0
X12,54 0
X12,55 0
X12,56 0
X12,57 0
X12,58 0
X12,59 0
X12,60 0
X12,61 0
X12,62 0
X12,63 0
X12,64 0
X12,65 0
X12,66 0
X12,67 0
X12,68 0
X12,69 0
X12,70 0
X12,71 0
X12,72 0
X12,73 0
X12,74 0
X12,75 0
X12,76 0
X12,77 0
X12,78 0
X12,79 0
X12,80 0
X12,81 0
X12,82 0
X12,83 0
X12,84 0
X12,85 0
X12,86 0
X12,87 0
X12,88 0
X12,89 0
X12,90 0
X12,91 0
X12,92 0
X12,93 0
X12,94 0
X12,95 0
X12,96 0
X12,97 0
X12,98 0
X12,99 0
X12,100 0
X12,101 0
X12,102 0
X12,103 0
X12,104 0
X12,105 0
X12,106 0
X12,107 0
X12,108 0
X12,109 0
X12,110 0
X12,111 0
X12,112 0
X12,113 0
X12,114 0
X12,115 0
X12,116 0
X12,117 0
X12,118 0
X12,119 0
X12,120 0
X12,121 0
X12,122 0
X12,123 0
X12,124 0
X12,125 0
X13,1 0
X13,2 0
X13,3 0
X13,4 0
X13,5 0
X13,6 0
X13,7 0
X13,8 0
X13,9 0
X13,10 0
X13,11 0
X13,12 0
X13,13 0
X13,14 0
X13,15 0
X13,16 0
X13,17 0
X13,18 0
X13,19 0
X13,20 0
X13,21 0
X13,22 0
X13,23 0
X13,24 0
X13,25 0
X13,26 0
X13,27 0
X13,28 0
X13,29 0
X13,30 0
X13,31 0
X13,32 0
X13,33 0
X13,34 0
X13,35 0
X13,36 0
X13,37 0
X13,38 0
X13,39 0
X13,40 0
X13,41 0
X13,42 0
X13,43 0
X13,44 0
X13,45 0
X13,46 0
X13,47 1
X13,48 0
X13,49 0
X13,50 0
X13,51 0
X13,52 0
X13,53 0
X13,54 0
X13,55 0
X13,56 0
X13,57 0
X13,58 0
X13,59 0
X13,60 0
X13,61 0
X13,62 0
X13,63 0
X13,64 0
X13,65 0
X13,66 0
X13,67 0
X13,68 0
X13,69 0
X13,70 0
X13,71 0
X13,72 0
X13,73 0
X13,74 0
X13,75 0
X13,76 0
X13,77 0
X13,78 0
X13,79 0
X13,80 0
X13,81 0
X13,82 0
X13,83 0
X13,84 0
X13,85 0
X13,86 0
X13,87 0
X13,88 0
X13,89 0
X13,90 0
X13,91 0
X13,92 0
X13,93 0
X13,94 0
X13,95 0
X13,96 0
X13,97 0
X13,98 0
X13,99 0
X13,100 0
X13,101 0
X13,102 0
X13,103 0
X13,104 0
X13,105 0
X13,106 0
X13,107 0
X13,108 0
X13,109 0
X13,110 0
X13,111 0
X13,112 0
X13,113 0
X13,114 0
X13,115 0
X13,116 0
X13,117 0
X13,118 0
X13,119 0
X13,120 0
X13,121 0
X13,122 0
X13,123 0
X13,124 0
X13,125 0
X14,1 0
X14,2 0
X14,3 0
X14,4 0
X14,5 0
X14,6 0
X14,7 0
X14,8 0
X14,9 0
X14,10 0
X14,11 0
X14,12 0
X14,13 0
X14,14 0
X14,15 0
X14,16 0
X14,17 0
X14,18 0
X14,19 0
X14,20 0
X14,21 0
X14,22 0
X14,23 0
X14,24 0
X14,25 0
X14,26 0
X14,27 0
X14,28 0
X14,29 0
X14,30 0
X14,31 0
X14,32 0
X14,33 0
X14,34 0
X14,35 0
X14,36 0
X14,37 0
X14,38 0
X14,39 0
X14,40 0
X14,41 0
X14,42 1
X14,43 0
X14,44 0
X14,45 0
X14,46 0
X14,47 0
X14,48 0
X14,49 0
X14,50 0
X14,51 0
X14,52 0
X14,53 0
X14,54 0
X14,55 0
X14,56 0
X14,57 0
X14,58 0
X14,59 0
X14,60 0
X14,61 0
X14,62 0
X14,63 0
X14,64 0
X14,65 0
X14,66 0
X14,67 0
X14,68 0
X14,69 0
X14,70 0
X14,71 0
X14,72 0
X14,73 0
X14,74 0
X14,75 0
X14,76 0
X14,77 0
X14,78 0
X14,79 0
X14,80 0
X14,81 0
X14,82 0
X14,83 0
X14,84 0
X14,85 0
X14,86 0
X14,87 0
X14,88 0
X14,89 0
X14,90 0
X14,91 0
X14,92 0
X14,93 0
X14,94 0
X14,95 0
X14,96 0
X14,97 0
X14,98 0
X14,99 0
X14,100 0
X14,101 0
X14,102 0
X14,103 0
X14,104 0
X14,105 0
X14,106 0
X14,107 0
X14,108 0
X14,109 0
X14,110 0
X14,111 0
X14,112 0
X14,113 0
X14,114 0
X14,115 0
X14,116 0
X14,117 0
X14,118 0
X14,119 0
X14,120 0
X14,121 0
X14,122 0
X14,123 0
X14,124 0
X14,125 0
X15,1 0
X15,2 0
X15,3 0
X15,4 0
X15,5 0
X15,6 0
X15,7 0
X15,8 0
X15,9 0
X15,10 0
X15,11 0
X15,12 0
X15,13 0
X15,14 0
X15,15 0
X15,16 0
X15,17 0
X15,18 0
X15,19 0
X15,20 0
X15,21 0
X15,22 0
X15,23 0
X15,24 0
X15,25 0
X15,26 0
X15,27 0
X15,28 0
X15,29 0
X15,30 0
X15,31 0
X15,32 0
X15,33 0
X15,34 0
X15,35 0
X15,36 0
X15,37 0
X15,38 0
X15,39 0
X15,40 0
X15,41 0
X15,42 0
X15,43 1
X15,44 0
X15,45 0
X15,46 0
X15,47 0
X15,48 0
X15,49 0
X15,50 0
X15,51 0
X15,52 0
X15,53 0
X15,54 0
X15,55 0
X15,56 0
X15,57 0
X15,58 0
X15,59 0
X15,60 0
X15,61 0
X15,62 0
X15,63 0
X15,64 0
X15,65 0
X15,66 0
X15,67 0
X15,68 0
X15,69 0
X15,70 0
X15,71 0
X15,72 0
X15,73 0
X15,74 0
X15,75 0
X15,76 0
X15,77 0
X15,78 0
X15,79 0
X15,80 0
X15,81 0
X15,82 0
X15,83 0
X15,84 0
X15,85 0
X15,86 0
X15,87 0
X15,88 0
X15,89 0
X15,90 0
X15,91 0
X15,92 0
X15,93 0
X15,94 0
X15,95 0
X15,96 0
X15,97 0
X15,98 0
X15,99 0
X15,100 0
X15,101 0
X15,102 0
X15,103 0
X15,104 0
X15,105 0
X15,106 0
X15,107 0
X15,108 0
X15,109 0
X15,110 0
X15,111 0
X15,112 0
X15,113 0
X15,114 0
X15,115 0
X15,116 0
X15,117 0
X15,118 0
X15,119 0
X15,120 0
X15,121 0
X15,122 0
X15,123 0
X15,124 0
X15,125 0
I1 0
I2 0
I3 0
I4 0
I5 0
I6 0
I7 0
I8 0
I9 0
I10 0
I11 0
I12 0
I13 0
I14 0
I15 0
I16 0
I17 0
I18 0
I19 0
I20 0
I21 0
I22 0
I23 0
I24 0
I25 0
I26 0
I27 0
I28 0
I29 0
I30 0
I31 0
I32 0
I33 0
I34 0
I35 0
I36 0
I37 0
I38 0
I39 0
I40 0
I41 0
I42 0
I43 0
I44 0
I45 0
I46 0
I47 0
I48 0
I49 0
I50 0
I51 0
I52 0
I53 0
I54 0
I55 0
I56 0
I57 1
I58 0
I59 0
I60 0
I61 0
I62 0
I63 0
I64 0
I65 0
I66 0
I67 0
I68 0
I69 0
I70 0
I71 0
I72 0
I73 0
I74 0
I75 0
I76 0
I77 0
I78 0
I79 0
I80 0
I81 0
I82 0
I83 0
I84 0
I85 0
I86 0
I87 0
I88 0
I89 0
I90 0
I91 0
I92 0
I93 0
I94 0
I95 0
I96 0
I97 0
I98 0
I99 0
I100 0
I101 0
I102 0
I103 0
I104 0
I105 0
I106 0
I107 0
I108 0
I109 0
I110 0
I111 0
I112 0
I113 0
I114 0
I115 0
I116 0
I117 0
I118 0
I119 0
I120 0
I121 0
I122 0
I123 0
I124 0
I125 0
